Route #1: 1 44 53 31 35 17 33 7 16 36 24 21 6 19 1
Route #2: 1 5 29 40 51 8 50 30 1
Route #3: 1 26 48 52 43 25 13 3 47 42 1
Route #4: 1 10 34 22 45 32 20 14 1
Route #5: 1 11 2 37 46 27 18 39 1
Route #6: 1 15 28 38 49 41 9 1
Route #7: 1 12 54 4 23 1
cost 1347
